
--- Job bchfcnet.gms Start 02/08/22 17:27:22 34.3.0 rac355f3 WEX-WEI x86 64bit/MS Windows
--- Applying:
    C:\GAMS\34\gmsprmNT.txt
--- GAMS Parameters defined
    Input C:\Users\dekhi\Desktop\gamsworld\FCNetLib\test\bchfcnet.gms
    PageSize 0
    ScrDir C:\Users\dekhi\Desktop\gamsworld\FCNetLib\test\225a\
    SysDir C:\GAMS\34\
    LogOption 3
    ErrMsg 1
    ErrorLog 99
    IDE 1
    ResLim 3600
    LstTitleLeftAligned 1
Licensee: Eval License                                   S211214|0002AW-GEN
          Ostfalia Hochschule fuer angewandte Wissenschaften        DCE1645
          C:\Users\dekhi\Documents\GAMS\gamslice.txt
          License Admin: Mohamed Ali Dekhil, dekhil.medali@gmail.com       
          Evaluation license: Not for commercial or production use
GAMS 34.3.0   Copyright (C) 1987-2021 GAMS Development. All rights reserved
--- Starting compilation
--- bchfcnet.gms(34) 2 Mb
--- . decl.gms(15) 2 Mb
--- bchfcnet.gms(38) 2 Mb
--- . l61x114.inc(265) 3 Mb
--- bchfcnet.gms(67) 3 Mb
--- . equs.gms(20) 3 Mb
--- bchfcnet.gms(97) 3 Mb
--- call rm -f bchout_i.gdx startcut.txt startheur.txt cuthist.gdx agap.txt rgap.txt cntfail.txt
--- bchfcnet.gms(118) 3 Mb
--- Starting execution: elapsed 0:00:00.088
--- bchfcnet.gms(323) 4 Mb
--- GDX File (execute_unload) C:\Users\dekhi\Desktop\gamsworld\FCNetLib\test\net.gdx
--- bchfcnet.gms(414) 4 Mb
--- GDXin=C:\Users\dekhi\Desktop\gamsworld\FCNetLib\test\points\l61x114.gdx
--- GDX File (execute_load) C:\Users\dekhi\Desktop\gamsworld\FCNetLib\test\points\l61x114.gdx
--- Generating MIP model master
--- bchfcnet.gms(418) 4 Mb
---   176 rows  229 columns  631 non-zeroes
---   114 discrete-columns
--- Executing CPLEX (Solvelink=2): elapsed 0:00:00.119

IBM ILOG CPLEX   34.3.0 rac355f3 Released Feb 25, 2021 WEI x86 64bit/MS Window

--- GAMS/Cplex Link licensed for continuous and discrete problems.

Reading parameter(s) from "C:\Users\dekhi\Desktop\gamsworld\FCNetLib\test\cplex.op2"
>>  mipstart 1
Finished reading from "C:\Users\dekhi\Desktop\gamsworld\FCNetLib\test\cplex.op2"

--- GMO memory 0.55 Mb (peak 0.55 Mb)
--- Dictionary memory 0.00 Mb
--- Cplex 20.1.0.0 link memory 0.01 Mb (peak 0.03 Mb)
--- Starting Cplex

Version identifier: 20.1.0.0 | 2020-11-10 | 9bedb6d68
CPXPARAM_Threads                                 1
CPXPARAM_MIP_Display                             4
CPXPARAM_TimeLimit                               3600
CPXPARAM_MIP_Tolerances_AbsMIPGap                0
CPXPARAM_MIP_Tolerances_MIPGap                   0
Generic callback                                 0x50
Processing 1 MIP starts.
MIP start 'm1' defined solution with objective 60085.0000.
1 of 1 MIP starts provided solutions.
MIP start 'm1' defined initial solution with objective 60085.0000.
Tried aggregator 2 times.
MIP Presolve eliminated 60 rows and 61 columns.
MIP Presolve modified 33 coefficients.
Aggregator did 11 substitutions.
Reduced MIP has 104 rows, 157 columns, and 318 nonzeros.
Reduced MIP has 54 binaries, 0 generals, 0 SOSs, and 0 indicators.
Presolve time = 0.00 sec. (0.35 ticks)
Probing time = 0.00 sec. (0.03 ticks)
Tried aggregator 1 time.
Detecting symmetries...
Reduced MIP has 104 rows, 157 columns, and 318 nonzeros.
Reduced MIP has 54 binaries, 0 generals, 0 SOSs, and 0 indicators.
Presolve time = 0.00 sec. (0.23 ticks)
Probing time = 0.00 sec. (0.03 ticks)
MIP emphasis: balance optimality and feasibility.
MIP search method: dynamic search.
Parallel mode: none, using 1 thread.
Tried aggregator 1 time.
LP Presolve eliminated 50 rows and 53 columns.
Aggregator did 1 substitutions.
Reduced LP has 53 rows, 103 columns, and 210 nonzeros.
Presolve time = 0.00 sec. (0.07 ticks)
Initializing dual steep norms . . .

Iteration log . . .
Iteration:     1   Scaled dual infeas =           210.000000
Iteration:     3   Dual objective     =         13077.000000
Initializing dual steep norms . . .
Root relaxation solution time = 0.00 sec. (0.29 ticks)

        Nodes                                         Cuts/
   Node  Left     Objective  IInf  Best Integer    Best Bound    ItCnt     Gap

*     0+    0                        60085.0000     6698.0000            88.85%
Found incumbent of value 60085.000000 after 0.00 sec. (1.33 ticks)
      0     0    56275.9947    22    60085.0000    56275.9947       50    6.34%
      0     0    59823.3479     5    60085.0000      Cuts: 58       76    0.44%
      0     0        cutoff          60085.0000                     83    0.00%
Elapsed time = 0.00 sec. (3.18 ticks, tree = 0.01 MB, solutions = 1)

Implied bound cuts applied:  2
Flow cuts applied:  13
Mixed integer rounding cuts applied:  21
Flow path cuts applied:  1
Gomory fractional cuts applied:  21

Root node processing (before b&c):
  Real time             =    0.00 sec. (3.19 ticks)
Sequential b&c:
  Real time             =    0.00 sec. (0.00 ticks)
                          ------------
Total (root+branch&cut) =    0.00 sec. (3.19 ticks)

--- MIP status (101): integer optimal solution.
--- Cplex Time: 0.00sec (det. 3.19 ticks)

--- Fixing integer variables and solving final LP...

Version identifier: 20.1.0.0 | 2020-11-10 | 9bedb6d68
CPXPARAM_Advance                                 2
CPXPARAM_Threads                                 1
CPXPARAM_MIP_Display                             4
CPXPARAM_TimeLimit                               3600
CPXPARAM_MIP_Tolerances_AbsMIPGap                0
CPXPARAM_MIP_Tolerances_MIPGap                   0
Tried aggregator 1 time.
LP Presolve eliminated 133 rows and 175 columns.
Aggregator did 33 substitutions.
Reduced LP has 9 rows, 21 columns, and 35 nonzeros.
Presolve time = 0.00 sec. (0.12 ticks)

Iteration log . . .
Iteration:     1   Dual infeasibility =             2.000000
Iteration:     6   Dual objective     =         55781.000000

--- Fixed MIP status (1): optimal.
--- Cplex Time: 0.00sec (det. 0.32 ticks)


Proven optimal solution
MIP Solution:        60085.000000    (83 iterations, 0 nodes)
Final Solve:         60085.000000    (10 iterations)

Best possible:       60085.000000
Absolute gap:            0.000000
Relative gap:            0.000000

--- Reading solution for model master
*** Status: Normal completion
--- Job bchfcnet.gms Stop 02/08/22 17:27:22 elapsed 0:00:00.173
